5069085963443378367505,10,1,2,013,12,1,2,013,14,1,2,011,6,1,2,04,9,1,2,010,4,1,2,02,8,1,2,05,9,1,2,05,11,1,2,013,8,1,2,01,12,1,2,08,3,1,2,02,6,1,2,08,4,1,2,04,14,1,2,08,14,1,2,013,6,1,2,013,9,1,2,013,5,1,2,06,7,1,2,012,10,1,2,01,13,1,2,012,8,1,2,02,14,1,2,08,13,1,2,04,5,1,2,014,6,1,2,01,13,1,2,011,10,1,2,02,2,1,2,015,9,1,2,01,15,1,2,014,1,1,2,05,5,1,2,014,5,1,2,06,9,1,2,04,15,1,2,07,5,1,2,06,1,1,2,010,7,1,2,07,15,1,2,011,12,1,2,014,6,1,2,01,5,1,2,06,11,1,2,011,12,1,2,013,13,1,2,03,13,1,2,01,1,1,2,012,13,1,2,0